num_offers = 40;
num_halls = 10;
start=[14,41,85,33,16,45,73,1,5,13,34,66,41,71,9,42,22,1,35,39,31,13,49,22,18,19,1,51,11,15,49,25,77,2,5,6,4,17,44,30];
end=[37,89,93,43,63,94,97,83,26,17,95,100,79,90,39,73,30,16,93,80,68,64,58,35,69,83,74,70,70,100,93,32,87,58,84,74,46,34,52,68];
price=[1991,2729,251,308,3656,4607,1157,3293,2143,279,4177,1954,2052,1893,1783,2564,248,1585,4212,1317,460,3650,693,649,1007,1616,6126,979,5368,5518,1547,614,1053,2001,3469,3368,962,1230,238,3599];
requirement=[467,237,870,752,333,343,919,999,595,555,768,341,782,373,619,587,380,515,570,623,358,792,865,566,993,569,624,786,432,690,262,870,646,361,829,385,452,270,435,544];
capacity=[998,676,634,615,751,465,441,770,305,307];
